8454 10326 10283
7126 11251 12527
7907 10559 11824
8280 11026 10863
7034 12483 11368
5821 12926 9670
6972 10246 12574
8195 11663 9870
6046 12687 11384
7581 12250 9827
7628 12050 11107
8317 11181 10052
8051 11656 10651
5756 12891 10786
7302 12476 11022
8142 9821 11495
7791 11881 11026
7545 10864 12364
7471 11743 12317
7850 11979 10443
8310 10319 11064
8068 10700 11448
7465 12307 10941
6862 12923 9983
8038 11407 11247
